docs/2022-03-21-ModelsBigM/BigMLazyCon_13.lp
\ENCODING=ISO-8859-1
\Problem name: ilog.cplex

Minimize
 obj: _131step1#20 + _131step2#21 + _131step3#22 + _136step1#43 + _136step2#44
      + _136step3#45 + _137step1#66 + _137step2#67 + _137step3#68
      + _124step1#86 + _124step2#87 + _124step3#88 + _125step1#96
      + _125step2#97 + _125step3#98
Subject To
 LB_131T6#0:                     _131T6#0 >= 80
 LB_131T7#1:                     _131T7#1 >= 491
 prec_131T7_131T6#2:             - _131T6#0 + _131T7#1 >= 411
 LB_131T8#3:                     _131T8#2 >= 728
 prec_131T8_131T7#4:             - _131T7#1 + _131T8#2 >= 237
 LB_131T9#5:                     _131T9#3 >= 1103
 prec_131T9_131T8#6:             - _131T8#2 + _131T9#3 >= 375
 LB_131T10#7:                    _131T10#4 >= 2540
 prec_131T10_131T9#8:            - _131T9#3 + _131T10#4 >= 1437
 LB_131T11#9:                    _131T11#5 >= 2813
 prec_131T11_131T10#10:          - _131T10#4 + _131T11#5 >= 273
 LB_131T12#11:                   _131T12#6 >= 3153
 prec_131T12_131T11#12:          - _131T11#5 + _131T12#6 >= 340
 LB_131T13#13:                   _131T13#7 >= 3266
 prec_131T13_131T12#14:          - _131T12#6 + _131T13#7 >= 113
 LB_131T14#15:                   _131T14#8 >= 3341
 prec_131T14_131T13#16:          - _131T13#7 + _131T14#8 >= 75
 LB_131T15#17:                   _131T15#9 >= 4159
 prec_131T15_131T14#18:          - _131T14#8 + _131T15#9 >= 818
 LB_131T16#19:                   _131T16#10 >= 4263
 prec_131T16_131T15#20:          - _131T15#9 + _131T16#10 >= 104
 LB_131T17#21:                   _131T17#11 >= 4580
 prec_131T17_131T16#22:          - _131T16#10 + _131T17#11 >= 317
 LB_131T18#23:                   _131T18#12 >= 4725
 prec_131T18_131T17#24:          - _131T17#11 + _131T18#12 >= 145
 LB_131T19#25:                   _131T19#13 >= 4902
 prec_131T19_131T18#26:          - _131T18#12 + _131T19#13 >= 177
 LB_131T20#27:                   _131T20#14 >= 5032
 prec_131T20_131T19#28:          - _131T19#13 + _131T20#14 >= 130
 LB_131T21#29:                   _131T21#15 >= 5075
 prec_131T21_131T20#30:          - _131T20#14 + _131T21#15 >= 43
 LB_131T22#31:                   _131T22#16 >= 5219
 prec_131T22_131T21#32:          - _131T21#15 + _131T22#16 >= 144
 LB_131T23#33:                   _131T23#17 >= 5780
 prec_131T23_131T22#34:          - _131T22#16 + _131T23#17 >= 561
 LB_131T24#35:                   _131T24#18 >= 5863
 prec_131T24_131T23#36:          - _131T23#17 + _131T24#18 >= 83
 LB_131T25#37:                   _131T25#19 >= 6002
 prec_131T25_131T24#38:          - _131T24#18 + _131T25#19 >= 139
 _131step1#39:                   _131T25#19 - 50343 _131step1#20 <= 5922
 _131step2#40:                   _131T25#19 - 50163 _131step2#21 <= 6102
 _131step3#41:                   _131T25#19 - 49983 _131step3#22 <= 6282
 LB_136T25#42:                   _136T25#23 >= 2961
 LB_136T24#43:                   _136T24#24 >= 3201
 prec_136T24_136T25#44:          - _136T25#23 + _136T24#24 >= 240
 LB_136T23#45:                   _136T23#25 >= 3411
 prec_136T23_136T24#46:          - _136T24#24 + _136T23#25 >= 210
 LB_136T22#47:                   _136T22#26 >= 3591
 prec_136T22_136T23#48:          - _136T23#25 + _136T22#26 >= 180
 LB_136T21#49:                   _136T21#27 >= 3771
 prec_136T21_136T22#50:          - _136T22#26 + _136T21#27 >= 180
 LB_136T20#51:                   _136T20#28 >= 3921
 prec_136T20_136T21#52:          - _136T21#27 + _136T20#28 >= 150
 LB_136T19#53:                   _136T19#29 >= 3966
 prec_136T19_136T20#54:          - _136T20#28 + _136T19#29 >= 45
 LB_136T18#55:                   _136T18#30 >= 4221
 prec_136T18_136T19#56:          - _136T19#29 + _136T18#30 >= 255
 LB_136T17#57:                   _136T17#31 >= 4551
 prec_136T17_136T18#58:          - _136T18#30 + _136T17#31 >= 330
 LB_136T16#59:                   _136T16#32 >= 4791
 prec_136T16_136T17#60:          - _136T17#31 + _136T16#32 >= 240
 LB_136T15#61:                   _136T15#33 >= 5031
 prec_136T15_136T16#62:          - _136T16#32 + _136T15#33 >= 240
 LB_136T14#63:                   _136T14#34 >= 5211
 prec_136T14_136T15#64:          - _136T15#33 + _136T14#34 >= 180
 LB_136T13#65:                   _136T13#35 >= 5412
 prec_136T13_136T14#66:          - _136T14#34 + _136T13#35 >= 201
 LB_136T12#67:                   _136T12#36 >= 5496
 prec_136T12_136T13#68:          - _136T13#35 + _136T12#36 >= 84
 LB_136T11#69:                   _136T11#37 >= 5701
 prec_136T11_136T12#70:          - _136T12#36 + _136T11#37 >= 205
 LB_136T10#71:                   _136T10#38 >= 6581
 prec_136T10_136T11#72:          - _136T11#37 + _136T10#38 >= 880
 LB_136T9#73:                    _136T9#39 >= 7001
 prec_136T9_136T10#74:           - _136T10#38 + _136T9#39 >= 420
 LB_136T8#75:                    _136T8#40 >= 7271
 prec_136T8_136T9#76:            - _136T9#39 + _136T8#40 >= 270
 LB_136T7#77:                    _136T7#41 >= 7601
 prec_136T7_136T8#78:            - _136T8#40 + _136T7#41 >= 330
 LB_136T6#79:                    _136T6#42 >= 7781
 prec_136T6_136T7#80:            - _136T7#41 + _136T6#42 >= 180
 _136step1#81:                   _136T6#42 - 50343 _136step1#43 <= 7781
 _136step2#82:                   _136T6#42 - 50163 _136step2#44 <= 7961
 _136step3#83:                   _136T6#42 - 49983 _136step3#45 <= 8141
 LB_137T6#84:                    _137T6#46 >= 801
 LB_137T7#85:                    _137T7#47 >= 1101
 prec_137T7_137T6#86:            - _137T6#46 + _137T7#47 >= 300
 LB_137T8#87:                    _137T8#48 >= 1281
 prec_137T8_137T7#88:            - _137T7#47 + _137T8#48 >= 180
 LB_137T9#89:                    _137T9#49 >= 1581
 prec_137T9_137T8#90:            - _137T8#48 + _137T9#49 >= 300
 LB_137T10#91:                   _137T10#50 >= 1821
 prec_137T10_137T9#92:           - _137T9#49 + _137T10#50 >= 240
 LB_137T11#93:                   _137T11#51 >= 2061
 prec_137T11_137T10#94:          - _137T10#50 + _137T11#51 >= 240
 LB_137T12#95:                   _137T12#52 >= 2421
 prec_137T12_137T11#96:          - _137T11#51 + _137T12#52 >= 360
 LB_137T13#97:                   _137T13#53 >= 2528
 prec_137T13_137T12#98:          - _137T12#52 + _137T13#53 >= 107
 LB_137T14#99:                   _137T14#54 >= 2600
 prec_137T14_137T13#100:         - _137T13#53 + _137T14#54 >= 72
 LB_137T15#101:                  _137T15#55 >= 2841
 prec_137T15_137T14#102:         - _137T14#54 + _137T15#55 >= 241
 LB_137T16#103:                  _137T16#56 >= 3021
 prec_137T16_137T15#104:         - _137T15#55 + _137T16#56 >= 180
 LB_137T17#105:                  _137T17#57 >= 3141
 prec_137T17_137T16#106:         - _137T16#56 + _137T17#57 >= 120
 LB_137T18#107:                  _137T18#58 >= 3321
 prec_137T18_137T17#108:         - _137T17#57 + _137T18#58 >= 180
 LB_137T19#109:                  _137T19#59 >= 3861
 prec_137T19_137T18#110:         - _137T18#58 + _137T19#59 >= 540
 LB_137T20#111:                  _137T20#60 >= 3951
 prec_137T20_137T19#112:         - _137T19#59 + _137T20#60 >= 90
 LB_137T21#113:                  _137T21#61 >= 3981
 prec_137T21_137T20#114:         - _137T20#60 + _137T21#61 >= 30
 LB_137T22#115:                  _137T22#62 >= 4161
 prec_137T22_137T21#116:         - _137T21#61 + _137T22#62 >= 180
 LB_137T23#117:                  _137T23#63 >= 4281
 prec_137T23_137T22#118:         - _137T22#62 + _137T23#63 >= 120
 LB_137T24#119:                  _137T24#64 >= 4401
 prec_137T24_137T23#120:         - _137T23#63 + _137T24#64 >= 120
 LB_137T25#121:                  _137T25#65 >= 4491
 prec_137T25_137T24#122:         - _137T24#64 + _137T25#65 >= 90
 _137step1#123:                  _137T25#65 - 50343 _137step1#66 <= 4491
 _137step2#124:                  _137T25#65 - 50163 _137step2#67 <= 4671
 _137step3#125:                  _137T25#65 - 49983 _137step3#68 <= 4851
 LB_124T22#126:                  _124T22#69 >= 220
 LB_124T21#127:                  _124T21#70 >= 400
 prec_124T21_124T22#128:         - _124T22#69 + _124T21#70 >= 180
 LB_124T20#129:                  _124T20#71 >= 549
 prec_124T20_124T21#130:         - _124T21#70 + _124T20#71 >= 149
 LB_124T19#131:                  _124T19#72 >= 594
 prec_124T19_124T20#132:         - _124T20#71 + _124T19#72 >= 45
 LB_124T18#133:                  _124T18#73 >= 850
 prec_124T18_124T19#134:         - _124T19#72 + _124T18#73 >= 256
 LB_124T17#135:                  _124T17#74 >= 1180
 prec_124T17_124T18#136:         - _124T18#73 + _124T17#74 >= 330
 LB_124T16#137:                  _124T16#75 >= 1420
 prec_124T16_124T17#138:         - _124T17#74 + _124T16#75 >= 240
 LB_124T15#139:                  _124T15#76 >= 1660
 prec_124T15_124T16#140:         - _124T16#75 + _124T15#76 >= 240
 LB_124T14#141:                  _124T14#77 >= 1840
 prec_124T14_124T15#142:         - _124T15#76 + _124T14#77 >= 180
 LB_124T13#143:                  _124T13#78 >= 2048
 prec_124T13_124T14#144:         - _124T14#77 + _124T13#78 >= 208
 LB_124T12#145:                  _124T12#79 >= 2129
 prec_124T12_124T13#146:         - _124T13#78 + _124T12#79 >= 81
 LB_124T11#147:                  _124T11#80 >= 2330
 prec_124T11_124T12#148:         - _124T12#79 + _124T11#80 >= 201
 LB_124T10#149:                  _124T10#81 >= 3210
 prec_124T10_124T11#150:         - _124T11#80 + _124T10#81 >= 880
 LB_124T9#151:                   _124T9#82 >= 3630
 prec_124T9_124T10#152:          - _124T10#81 + _124T9#82 >= 420
 LB_124T8#153:                   _124T8#83 >= 3900
 prec_124T8_124T9#154:           - _124T9#82 + _124T8#83 >= 270
 LB_124T7#155:                   _124T7#84 >= 4230
 prec_124T7_124T8#156:           - _124T8#83 + _124T7#84 >= 330
 LB_124T6#157:                   _124T6#85 >= 4410
 prec_124T6_124T7#158:           - _124T7#84 + _124T6#85 >= 180
 _124step1#159:                  _124T6#85 - 50343 _124step1#86 <= 4190
 _124step2#160:                  _124T6#85 - 50163 _124step2#87 <= 4370
 _124step3#161:                  _124T6#85 - 49983 _124step3#88 <= 4550
 LB_125T19#162:                  _125T19#89 >= 201
 LB_125T20#163:                  _125T20#90 >= 291
 prec_125T20_125T19#164:         - _125T19#89 + _125T20#90 >= 90
 LB_125T21#165:                  _125T21#91 >= 321
 prec_125T21_125T20#166:         - _125T20#90 + _125T21#91 >= 30
 LB_125T22#167:                  _125T22#92 >= 501
 prec_125T22_125T21#168:         - _125T21#91 + _125T22#92 >= 180
 LB_125T23#169:                  _125T23#93 >= 621
 prec_125T23_125T22#170:         - _125T22#92 + _125T23#93 >= 120
 LB_125T24#171:                  _125T24#94 >= 741
 prec_125T24_125T23#172:         - _125T23#93 + _125T24#94 >= 120
 LB_125T25#173:                  _125T25#95 >= 851
 prec_125T25_125T24#174:         - _125T24#94 + _125T25#95 >= 110
 _125step1#175:                  _125T25#95 - 50343 _125step1#96 <= 851
 _125step2#176:                  _125T25#95 - 50163 _125step2#97 <= 1031
 _125step3#177:                  _125T25#95 - 49983 _125step3#98 <= 1211
 Domain_124T6_vs_131T6#178:      _124T6prec131T6#99 >= 0
 Domain_124T6_vs_136T6#179:      _124T6prec136T6#100 >= 0
 Domain_124T6_vs_137T6#180:      _124T6prec137T6#101 >= 0
 Domain_131T6_vs_136T6#181:      _131T6prec136T6#102 >= 0
 Domain_131T6_vs_137T6#182:      _131T6prec137T6#103 >= 0
 Domain_136T6_vs_137T6#183:      _136T6prec137T6#104 >= 0
 Domain_124T7_vs_131T7#184:      _124T7prec131T7#105 >= 0
 Domain_124T7_vs_136T7#185:      _124T7prec136T7#106 >= 0
 Domain_124T7_vs_137T7#186:      _124T7prec137T7#107 >= 0
 Domain_131T7_vs_136T7#187:      _131T7prec136T7#108 >= 0
 Domain_131T7_vs_137T7#188:      _131T7prec137T7#109 >= 0
 Domain_136T7_vs_137T7#189:      _136T7prec137T7#110 >= 0
 Domain_124T8_vs_131T8#190:      _124T8prec131T8#111 >= 0
 Domain_124T8_vs_136T8#191:      _124T8prec136T8#112 >= 0
 Domain_124T8_vs_137T8#192:      _124T8prec137T8#113 >= 0
 Domain_131T8_vs_136T8#193:      _131T8prec136T8#114 >= 0
 Domain_131T8_vs_137T8#194:      _131T8prec137T8#115 >= 0
 Domain_136T8_vs_137T8#195:      _136T8prec137T8#116 >= 0
 Domain_124T9_vs_131T9#196:      _124T9prec131T9#117 >= 0
 Domain_124T9_vs_136T9#197:      _124T9prec136T9#118 >= 0
 Domain_124T9_vs_137T9#198:      _124T9prec137T9#119 >= 0
 Domain_131T9_vs_136T9#199:      _131T9prec136T9#120 >= 0
 Domain_131T9_vs_137T9#200:      _131T9prec137T9#121 >= 0
 Domain_136T9_vs_137T9#201:      _136T9prec137T9#122 >= 0
 Domain_124T10_vs_131T10#202:    _124T10prec131T10#123 >= 0
 Domain_124T10_vs_136T10#203:    _124T10prec136T10#124 >= 0
 Domain_124T10_vs_137T10#204:    _124T10prec137T10#125 >= 0
 Domain_131T10_vs_136T10#205:    _131T10prec136T10#126 >= 0
 Domain_131T10_vs_137T10#206:    _131T10prec137T10#127 >= 0
 Domain_136T10_vs_137T10#207:    _136T10prec137T10#128 >= 0
 InitiDisj_124T11_vs_131T11#208: _131T11#5 - _124T11#80
                                 + 50343 _124T11prec131T11#129 >= 700
 InitiDisj_131T11_vs_124T11#209: - _131T11#5 + _124T11#80
                                 - 50343 _124T11prec131T11#129 >= -50003
 Domain_124T11_vs_136T11#210:    _124T11prec136T11#130 >= 0
 InitiDisj_124T11_vs_137T11#211: _137T11#51 - _124T11#80
                                 + 50343 _124T11prec137T11#131 >= 700
 InitiDisj_137T11_vs_124T11#212: - _137T11#51 + _124T11#80
                                 - 50343 _124T11prec137T11#131 >= -50023
 Domain_131T11_vs_136T11#213:    _131T11prec136T11#132 >= 0
 Domain_131T11_vs_137T11#214:    _131T11prec137T11#133 >= 0
 Domain_136T11_vs_137T11#215:    _136T11prec137T11#134 >= 0
 Domain_124T12_vs_131T12#216:    _124T12prec131T12#135 >= 0
 Domain_124T12_vs_136T12#217:    _124T12prec136T12#136 >= 0
 Domain_124T12_vs_137T12#218:    _124T12prec137T12#137 >= 0
 Domain_131T12_vs_136T12#219:    _131T12prec136T12#138 >= 0
 Domain_131T12_vs_137T12#220:    _131T12prec137T12#139 >= 0
 Domain_136T12_vs_137T12#221:    _136T12prec137T12#140 >= 0
 Domain_124T13_vs_131T13#222:    _124T13prec131T13#141 >= 0
 Domain_124T13_vs_136T13#223:    _124T13prec136T13#142 >= 0
 Domain_124T13_vs_137T13#224:    _124T13prec137T13#143 >= 0
 Domain_131T13_vs_136T13#225:    _131T13prec136T13#144 >= 0
 Domain_131T13_vs_137T13#226:    _131T13prec137T13#145 >= 0
 Domain_136T13_vs_137T13#227:    _136T13prec137T13#146 >= 0
 Domain_124T14_vs_131T14#228:    _124T14prec131T14#147 >= 0
 Domain_124T14_vs_136T14#229:    _124T14prec136T14#148 >= 0
 Domain_124T14_vs_137T14#230:    _124T14prec137T14#149 >= 0
 Domain_131T14_vs_136T14#231:    _131T14prec136T14#150 >= 0
 Domain_131T14_vs_137T14#232:    _131T14prec137T14#151 >= 0
 Domain_136T14_vs_137T14#233:    _136T14prec137T14#152 >= 0
 Domain_124T15_vs_131T15#234:    _124T15prec131T15#153 >= 0
 Domain_124T15_vs_136T15#235:    _124T15prec136T15#154 >= 0
 Domain_124T15_vs_137T15#236:    _124T15prec137T15#155 >= 0
 Domain_131T15_vs_136T15#237:    _131T15prec136T15#156 >= 0
 Domain_131T15_vs_137T15#238:    _131T15prec137T15#157 >= 0
 Domain_136T15_vs_137T15#239:    _136T15prec137T15#158 >= 0
 Domain_124T16_vs_131T16#240:    _124T16prec131T16#159 >= 0
 Domain_124T16_vs_136T16#241:    _124T16prec136T16#160 >= 0
 Domain_124T16_vs_137T16#242:    _124T16prec137T16#161 >= 0
 Domain_131T16_vs_136T16#243:    _131T16prec136T16#162 >= 0
 Domain_131T16_vs_137T16#244:    _131T16prec137T16#163 >= 0
 Domain_136T16_vs_137T16#245:    _136T16prec137T16#164 >= 0
 Domain_124T17_vs_131T17#246:    _124T17prec131T17#165 >= 0
 Domain_124T17_vs_136T17#247:    _124T17prec136T17#166 >= 0
 Domain_124T17_vs_137T17#248:    _124T17prec137T17#167 >= 0
 InitiDisj_131T17_vs_136T17#249: - _131T17#11 + _136T17#31
                                 + 50343 _131T17prec136T17#168 >= 145
 InitiDisj_136T17_vs_131T17#250: _131T17#11 - _136T17#31
                                 - 50343 _131T17prec136T17#168 >= -50133
 Domain_131T17_vs_137T17#251:    _131T17prec137T17#169 >= 0
 Domain_136T17_vs_137T17#252:    _136T17prec137T17#170 >= 0
 Domain_124T18_vs_131T18#253:    _124T18prec131T18#171 >= 0
 Domain_124T18_vs_136T18#254:    _124T18prec136T18#172 >= 0
 Domain_124T18_vs_137T18#255:    _124T18prec137T18#173 >= 0
 Domain_131T18_vs_136T18#256:    _131T18prec136T18#174 >= 0
 Domain_131T18_vs_137T18#257:    _131T18prec137T18#175 >= 0
 Domain_136T18_vs_137T18#258:    _136T18prec137T18#176 >= 0
 Domain_124T19_vs_125T19#259:    _124T19prec125T19#177 >= 0
 Domain_124T19_vs_131T19#260:    _124T19prec131T19#178 >= 0
 Domain_124T19_vs_136T19#261:    _124T19prec136T19#179 >= 0
 Domain_124T19_vs_137T19#262:    _124T19prec137T19#180 >= 0
 Domain_125T19_vs_131T19#263:    _125T19prec131T19#181 >= 0
 Domain_125T19_vs_136T19#264:    _125T19prec136T19#182 >= 0
 Domain_125T19_vs_137T19#265:    _125T19prec137T19#183 >= 0
 Domain_131T19_vs_136T19#266:    _131T19prec136T19#184 >= 0
 Domain_131T19_vs_137T19#267:    _131T19prec137T19#185 >= 0
 Domain_136T19_vs_137T19#268:    _136T19prec137T19#186 >= 0
 Domain_124T20_vs_125T20#269:    _124T20prec125T20#187 >= 0
 Domain_124T20_vs_131T20#270:    _124T20prec131T20#188 >= 0
 Domain_124T20_vs_136T20#271:    _124T20prec136T20#189 >= 0
 Domain_124T20_vs_137T20#272:    _124T20prec137T20#190 >= 0
 Domain_125T20_vs_131T20#273:    _125T20prec131T20#191 >= 0
 Domain_125T20_vs_136T20#274:    _125T20prec136T20#192 >= 0
 Domain_125T20_vs_137T20#275:    _125T20prec137T20#193 >= 0
 Domain_131T20_vs_136T20#276:    _131T20prec136T20#194 >= 0
 Domain_131T20_vs_137T20#277:    _131T20prec137T20#195 >= 0
 InitiDisj_136T20_vs_137T20#278: - _136T20#28 + _137T20#60
                                 + 50343 _136T20prec137T20#196 >= 45
 InitiDisj_137T20_vs_136T20#279: _136T20#28 - _137T20#60
                                 - 50343 _136T20prec137T20#196 >= -50313
 InitiDisj_124T21_vs_125T21#280: - _124T21#70 + _125T21#91
                                 + 50343 _124T21prec125T21#197 >= 149
 InitiDisj_125T21_vs_124T21#281: _124T21#70 - _125T21#91
                                 - 50343 _124T21prec125T21#197 >= -50193
 Domain_124T21_vs_131T21#282:    _124T21prec131T21#198 >= 0
 Domain_124T21_vs_136T21#283:    _124T21prec136T21#199 >= 0
 Domain_124T21_vs_137T21#284:    _124T21prec137T21#200 >= 0
 Domain_125T21_vs_131T21#285:    _125T21prec131T21#201 >= 0
 Domain_125T21_vs_136T21#286:    _125T21prec136T21#202 >= 0
 Domain_125T21_vs_137T21#287:    _125T21prec137T21#203 >= 0
 Domain_131T21_vs_136T21#288:    _131T21prec136T21#204 >= 0
 Domain_131T21_vs_137T21#289:    _131T21prec137T21#205 >= 0
 Domain_136T21_vs_137T21#290:    _136T21prec137T21#206 >= 0
 Domain_124T22_vs_125T22#291:    _124T22prec125T22#207 >= 0
 Domain_124T22_vs_131T22#292:    _124T22prec131T22#208 >= 0
 Domain_124T22_vs_136T22#293:    _124T22prec136T22#209 >= 0
 Domain_124T22_vs_137T22#294:    _124T22prec137T22#210 >= 0
 Domain_125T22_vs_131T22#295:    _125T22prec131T22#211 >= 0
 Domain_125T22_vs_136T22#296:    _125T22prec136T22#212 >= 0
 Domain_125T22_vs_137T22#297:    _125T22prec137T22#213 >= 0
 Domain_131T22_vs_136T22#298:    _131T22prec136T22#214 >= 0
 Domain_131T22_vs_137T22#299:    _131T22prec137T22#215 >= 0
 Domain_136T22_vs_137T22#300:    _136T22prec137T22#216 >= 0
 Domain_125T23_vs_131T23#301:    _125T23prec131T23#217 >= 0
 Domain_125T23_vs_136T23#302:    _125T23prec136T23#218 >= 0
 Domain_125T23_vs_137T23#303:    _125T23prec137T23#219 >= 0
 Domain_131T23_vs_136T23#304:    _131T23prec136T23#220 >= 0
 Domain_131T23_vs_137T23#305:    _131T23prec137T23#221 >= 0
 Domain_136T23_vs_137T23#306:    _136T23prec137T23#222 >= 0
 Domain_125T24_vs_131T24#307:    _125T24prec131T24#223 >= 0
 Domain_125T24_vs_136T24#308:    _125T24prec136T24#224 >= 0
 Domain_125T24_vs_137T24#309:    _125T24prec137T24#225 >= 0
 Domain_131T24_vs_136T24#310:    _131T24prec136T24#226 >= 0
 Domain_131T24_vs_137T24#311:    _131T24prec137T24#227 >= 0
 Domain_136T24_vs_137T24#312:    _136T24prec137T24#228 >= 0
 Domain_125T25_vs_131T25#313:    _125T25prec131T25#229 >= 0
 Domain_125T25_vs_136T25#314:    _125T25prec136T25#230 >= 0
 Domain_125T25_vs_137T25#315:    _125T25prec137T25#231 >= 0
 Domain_131T25_vs_136T25#316:    _131T25prec136T25#232 >= 0
 Domain_131T25_vs_137T25#317:    _131T25prec137T25#233 >= 0
 Domain_136T25_vs_137T25#318:    _136T25prec137T25#234 >= 0
Bounds
 0 <= _131T6#0 <= 2147483647
 0 <= _131T7#1 <= 2147483647
 0 <= _131T8#2 <= 2147483647
 0 <= _131T9#3 <= 2147483647
 0 <= _131T10#4 <= 2147483647
 0 <= _131T11#5 <= 2147483647
 0 <= _131T12#6 <= 2147483647
 0 <= _131T13#7 <= 2147483647
 0 <= _131T14#8 <= 2147483647
 0 <= _131T15#9 <= 2147483647
 0 <= _131T16#10 <= 2147483647
 0 <= _131T17#11 <= 2147483647
 0 <= _131T18#12 <= 2147483647
 0 <= _131T19#13 <= 2147483647
 0 <= _131T20#14 <= 2147483647
 0 <= _131T21#15 <= 2147483647
 0 <= _131T22#16 <= 2147483647
 0 <= _131T23#17 <= 2147483647
 0 <= _131T24#18 <= 2147483647
 0 <= _131T25#19 <= 2147483647
 0 <= _131step1#20 <= 1
 0 <= _131step2#21 <= 1
 0 <= _131step3#22 <= 1
 0 <= _136T25#23 <= 2147483647
 0 <= _136T24#24 <= 2147483647
 0 <= _136T23#25 <= 2147483647
 0 <= _136T22#26 <= 2147483647
 0 <= _136T21#27 <= 2147483647
 0 <= _136T20#28 <= 2147483647
 0 <= _136T19#29 <= 2147483647
 0 <= _136T18#30 <= 2147483647
 0 <= _136T17#31 <= 2147483647
 0 <= _136T16#32 <= 2147483647
 0 <= _136T15#33 <= 2147483647
 0 <= _136T14#34 <= 2147483647
 0 <= _136T13#35 <= 2147483647
 0 <= _136T12#36 <= 2147483647
 0 <= _136T11#37 <= 2147483647
 0 <= _136T10#38 <= 2147483647
 0 <= _136T9#39 <= 2147483647
 0 <= _136T8#40 <= 2147483647
 0 <= _136T7#41 <= 2147483647
 0 <= _136T6#42 <= 2147483647
 0 <= _136step1#43 <= 1
 0 <= _136step2#44 <= 1
 0 <= _136step3#45 <= 1
 0 <= _137T6#46 <= 2147483647
 0 <= _137T7#47 <= 2147483647
 0 <= _137T8#48 <= 2147483647
 0 <= _137T9#49 <= 2147483647
 0 <= _137T10#50 <= 2147483647
 0 <= _137T11#51 <= 2147483647
 0 <= _137T12#52 <= 2147483647
 0 <= _137T13#53 <= 2147483647
 0 <= _137T14#54 <= 2147483647
 0 <= _137T15#55 <= 2147483647
 0 <= _137T16#56 <= 2147483647
 0 <= _137T17#57 <= 2147483647
 0 <= _137T18#58 <= 2147483647
 0 <= _137T19#59 <= 2147483647
 0 <= _137T20#60 <= 2147483647
 0 <= _137T21#61 <= 2147483647
 0 <= _137T22#62 <= 2147483647
 0 <= _137T23#63 <= 2147483647
 0 <= _137T24#64 <= 2147483647
 0 <= _137T25#65 <= 2147483647
 0 <= _137step1#66 <= 1
 0 <= _137step2#67 <= 1
 0 <= _137step3#68 <= 1
 0 <= _124T22#69 <= 2147483647
 0 <= _124T21#70 <= 2147483647
 0 <= _124T20#71 <= 2147483647
 0 <= _124T19#72 <= 2147483647
 0 <= _124T18#73 <= 2147483647
 0 <= _124T17#74 <= 2147483647
 0 <= _124T16#75 <= 2147483647
 0 <= _124T15#76 <= 2147483647
 0 <= _124T14#77 <= 2147483647
 0 <= _124T13#78 <= 2147483647
 0 <= _124T12#79 <= 2147483647
 0 <= _124T11#80 <= 2147483647
 0 <= _124T10#81 <= 2147483647
 0 <= _124T9#82 <= 2147483647
 0 <= _124T8#83 <= 2147483647
 0 <= _124T7#84 <= 2147483647
 0 <= _124T6#85 <= 2147483647
 0 <= _124step1#86 <= 1
 0 <= _124step2#87 <= 1
 0 <= _124step3#88 <= 1
 0 <= _125T19#89 <= 2147483647
 0 <= _125T20#90 <= 2147483647
 0 <= _125T21#91 <= 2147483647
 0 <= _125T22#92 <= 2147483647
 0 <= _125T23#93 <= 2147483647
 0 <= _125T24#94 <= 2147483647
 0 <= _125T25#95 <= 2147483647
 0 <= _125step1#96 <= 1
 0 <= _125step2#97 <= 1
 0 <= _125step3#98 <= 1
 0 <= _124T6prec131T6#99 <= 1
 0 <= _124T6prec136T6#100 <= 1
 0 <= _124T6prec137T6#101 <= 1
 0 <= _131T6prec136T6#102 <= 1
 0 <= _131T6prec137T6#103 <= 1
 0 <= _136T6prec137T6#104 <= 1
 0 <= _124T7prec131T7#105 <= 1
 0 <= _124T7prec136T7#106 <= 1
 0 <= _124T7prec137T7#107 <= 1
 0 <= _131T7prec136T7#108 <= 1
 0 <= _131T7prec137T7#109 <= 1
 0 <= _136T7prec137T7#110 <= 1
 0 <= _124T8prec131T8#111 <= 1
 0 <= _124T8prec136T8#112 <= 1
 0 <= _124T8prec137T8#113 <= 1
 0 <= _131T8prec136T8#114 <= 1
 0 <= _131T8prec137T8#115 <= 1
 0 <= _136T8prec137T8#116 <= 1
 0 <= _124T9prec131T9#117 <= 1
 0 <= _124T9prec136T9#118 <= 1
 0 <= _124T9prec137T9#119 <= 1
 0 <= _131T9prec136T9#120 <= 1
 0 <= _131T9prec137T9#121 <= 1
 0 <= _136T9prec137T9#122 <= 1
 0 <= _124T10prec131T10#123 <= 1
 0 <= _124T10prec136T10#124 <= 1
 0 <= _124T10prec137T10#125 <= 1
 0 <= _131T10prec136T10#126 <= 1
 0 <= _131T10prec137T10#127 <= 1
 0 <= _136T10prec137T10#128 <= 1
 0 <= _124T11prec131T11#129 <= 1
 0 <= _124T11prec136T11#130 <= 1
 0 <= _124T11prec137T11#131 <= 1
 0 <= _131T11prec136T11#132 <= 1
 0 <= _131T11prec137T11#133 <= 1
 0 <= _136T11prec137T11#134 <= 1
 0 <= _124T12prec131T12#135 <= 1
 0 <= _124T12prec136T12#136 <= 1
 0 <= _124T12prec137T12#137 <= 1
 0 <= _131T12prec136T12#138 <= 1
 0 <= _131T12prec137T12#139 <= 1
 0 <= _136T12prec137T12#140 <= 1
 0 <= _124T13prec131T13#141 <= 1
 0 <= _124T13prec136T13#142 <= 1
 0 <= _124T13prec137T13#143 <= 1
 0 <= _131T13prec136T13#144 <= 1
 0 <= _131T13prec137T13#145 <= 1
 0 <= _136T13prec137T13#146 <= 1
 0 <= _124T14prec131T14#147 <= 1
 0 <= _124T14prec136T14#148 <= 1
 0 <= _124T14prec137T14#149 <= 1
 0 <= _131T14prec136T14#150 <= 1
 0 <= _131T14prec137T14#151 <= 1
 0 <= _136T14prec137T14#152 <= 1
 0 <= _124T15prec131T15#153 <= 1
 0 <= _124T15prec136T15#154 <= 1
 0 <= _124T15prec137T15#155 <= 1
 0 <= _131T15prec136T15#156 <= 1
 0 <= _131T15prec137T15#157 <= 1
 0 <= _136T15prec137T15#158 <= 1
 0 <= _124T16prec131T16#159 <= 1
 0 <= _124T16prec136T16#160 <= 1
 0 <= _124T16prec137T16#161 <= 1
 0 <= _131T16prec136T16#162 <= 1
 0 <= _131T16prec137T16#163 <= 1
 0 <= _136T16prec137T16#164 <= 1
 0 <= _124T17prec131T17#165 <= 1
 0 <= _124T17prec136T17#166 <= 1
 0 <= _124T17prec137T17#167 <= 1
 0 <= _131T17prec136T17#168 <= 1
 0 <= _131T17prec137T17#169 <= 1
 0 <= _136T17prec137T17#170 <= 1
 0 <= _124T18prec131T18#171 <= 1
 0 <= _124T18prec136T18#172 <= 1
 0 <= _124T18prec137T18#173 <= 1
 0 <= _131T18prec136T18#174 <= 1
 0 <= _131T18prec137T18#175 <= 1
 0 <= _136T18prec137T18#176 <= 1
 0 <= _124T19prec125T19#177 <= 1
 0 <= _124T19prec131T19#178 <= 1
 0 <= _124T19prec136T19#179 <= 1
 0 <= _124T19prec137T19#180 <= 1
 0 <= _125T19prec131T19#181 <= 1
 0 <= _125T19prec136T19#182 <= 1
 0 <= _125T19prec137T19#183 <= 1
 0 <= _131T19prec136T19#184 <= 1
 0 <= _131T19prec137T19#185 <= 1
 0 <= _136T19prec137T19#186 <= 1
 0 <= _124T20prec125T20#187 <= 1
 0 <= _124T20prec131T20#188 <= 1
 0 <= _124T20prec136T20#189 <= 1
 0 <= _124T20prec137T20#190 <= 1
 0 <= _125T20prec131T20#191 <= 1
 0 <= _125T20prec136T20#192 <= 1
 0 <= _125T20prec137T20#193 <= 1
 0 <= _131T20prec136T20#194 <= 1
 0 <= _131T20prec137T20#195 <= 1
 0 <= _136T20prec137T20#196 <= 1
 0 <= _124T21prec125T21#197 <= 1
 0 <= _124T21prec131T21#198 <= 1
 0 <= _124T21prec136T21#199 <= 1
 0 <= _124T21prec137T21#200 <= 1
 0 <= _125T21prec131T21#201 <= 1
 0 <= _125T21prec136T21#202 <= 1
 0 <= _125T21prec137T21#203 <= 1
 0 <= _131T21prec136T21#204 <= 1
 0 <= _131T21prec137T21#205 <= 1
 0 <= _136T21prec137T21#206 <= 1
 0 <= _124T22prec125T22#207 <= 1
 0 <= _124T22prec131T22#208 <= 1
 0 <= _124T22prec136T22#209 <= 1
 0 <= _124T22prec137T22#210 <= 1
 0 <= _125T22prec131T22#211 <= 1
 0 <= _125T22prec136T22#212 <= 1
 0 <= _125T22prec137T22#213 <= 1
 0 <= _131T22prec136T22#214 <= 1
 0 <= _131T22prec137T22#215 <= 1
 0 <= _136T22prec137T22#216 <= 1
 0 <= _125T23prec131T23#217 <= 1
 0 <= _125T23prec136T23#218 <= 1
 0 <= _125T23prec137T23#219 <= 1
 0 <= _131T23prec136T23#220 <= 1
 0 <= _131T23prec137T23#221 <= 1
 0 <= _136T23prec137T23#222 <= 1
 0 <= _125T24prec131T24#223 <= 1
 0 <= _125T24prec136T24#224 <= 1
 0 <= _125T24prec137T24#225 <= 1
 0 <= _131T24prec136T24#226 <= 1
 0 <= _131T24prec137T24#227 <= 1
 0 <= _136T24prec137T24#228 <= 1
 0 <= _125T25prec131T25#229 <= 1
 0 <= _125T25prec136T25#230 <= 1
 0 <= _125T25prec137T25#231 <= 1
 0 <= _131T25prec136T25#232 <= 1
 0 <= _131T25prec137T25#233 <= 1
 0 <= _136T25prec137T25#234 <= 1
Binaries
 _131step1#20  _131step2#21  _131step3#22  _136step1#43  _136step2#44 
 _136step3#45  _137step1#66  _137step2#67  _137step3#68  _124step1#86 
 _124step2#87  _124step3#88  _125step1#96  _125step2#97  _125step3#98 
 _124T6prec131T6#99  _124T6prec136T6#100  _124T6prec137T6#101 
 _131T6prec136T6#102  _131T6prec137T6#103  _136T6prec137T6#104 
 _124T7prec131T7#105  _124T7prec136T7#106  _124T7prec137T7#107 
 _131T7prec136T7#108  _131T7prec137T7#109  _136T7prec137T7#110 
 _124T8prec131T8#111  _124T8prec136T8#112  _124T8prec137T8#113 
 _131T8prec136T8#114  _131T8prec137T8#115  _136T8prec137T8#116 
 _124T9prec131T9#117  _124T9prec136T9#118  _124T9prec137T9#119 
 _131T9prec136T9#120  _131T9prec137T9#121  _136T9prec137T9#122 
 _124T10prec131T10#123  _124T10prec136T10#124  _124T10prec137T10#125 
 _131T10prec136T10#126  _131T10prec137T10#127  _136T10prec137T10#128 
 _124T11prec131T11#129  _124T11prec136T11#130  _124T11prec137T11#131 
 _131T11prec136T11#132  _131T11prec137T11#133  _136T11prec137T11#134 
 _124T12prec131T12#135  _124T12prec136T12#136  _124T12prec137T12#137 
 _131T12prec136T12#138  _131T12prec137T12#139  _136T12prec137T12#140 
 _124T13prec131T13#141  _124T13prec136T13#142  _124T13prec137T13#143 
 _131T13prec136T13#144  _131T13prec137T13#145  _136T13prec137T13#146 
 _124T14prec131T14#147  _124T14prec136T14#148  _124T14prec137T14#149 
 _131T14prec136T14#150  _131T14prec137T14#151  _136T14prec137T14#152 
 _124T15prec131T15#153  _124T15prec136T15#154  _124T15prec137T15#155 
 _131T15prec136T15#156  _131T15prec137T15#157  _136T15prec137T15#158 
 _124T16prec131T16#159  _124T16prec136T16#160  _124T16prec137T16#161 
 _131T16prec136T16#162  _131T16prec137T16#163  _136T16prec137T16#164 
 _124T17prec131T17#165  _124T17prec136T17#166  _124T17prec137T17#167 
 _131T17prec136T17#168  _131T17prec137T17#169  _136T17prec137T17#170 
 _124T18prec131T18#171  _124T18prec136T18#172  _124T18prec137T18#173 
 _131T18prec136T18#174  _131T18prec137T18#175  _136T18prec137T18#176 
 _124T19prec125T19#177  _124T19prec131T19#178  _124T19prec136T19#179 
 _124T19prec137T19#180  _125T19prec131T19#181  _125T19prec136T19#182 
 _125T19prec137T19#183  _131T19prec136T19#184  _131T19prec137T19#185 
 _136T19prec137T19#186  _124T20prec125T20#187  _124T20prec131T20#188 
 _124T20prec136T20#189  _124T20prec137T20#190  _125T20prec131T20#191 
 _125T20prec136T20#192  _125T20prec137T20#193  _131T20prec136T20#194 
 _131T20prec137T20#195  _136T20prec137T20#196  _124T21prec125T21#197 
 _124T21prec131T21#198  _124T21prec136T21#199  _124T21prec137T21#200 
 _125T21prec131T21#201  _125T21prec136T21#202  _125T21prec137T21#203 
 _131T21prec136T21#204  _131T21prec137T21#205  _136T21prec137T21#206 
 _124T22prec125T22#207  _124T22prec131T22#208  _124T22prec136T22#209 
 _124T22prec137T22#210  _125T22prec131T22#211  _125T22prec136T22#212 
 _125T22prec137T22#213  _131T22prec136T22#214  _131T22prec137T22#215 
 _136T22prec137T22#216  _125T23prec131T23#217  _125T23prec136T23#218 
 _125T23prec137T23#219  _131T23prec136T23#220  _131T23prec137T23#221 
 _136T23prec137T23#222  _125T24prec131T24#223  _125T24prec136T24#224 
 _125T24prec137T24#225  _131T24prec136T24#226  _131T24prec137T24#227 
 _136T24prec137T24#228  _125T25prec131T25#229  _125T25prec136T25#230 
 _125T25prec137T25#231  _131T25prec136T25#232  _131T25prec137T25#233 
 _136T25prec137T25#234 
End
