docs/2022-03-21-ModelsBigM/BigMLazyCon_13.log
CPXPARAM_MIP_Tolerances_MIPGap                   0
Lazy constraint(s) or lazy constraint callback is present.
    Disabling dual reductions (CPX_PARAM_REDUCE) in presolve.
    Disabling non-linear reductions (CPX_PARAM_PRELINEAR) in presolve.
         Disabling repeat represolve because of lazy constraint/incumbent callback.
Tried aggregator 1 time.
MIP Presolve eliminated 218 rows and 3 columns.
MIP Presolve modified 1 coefficients.
Reduced MIP has 101 rows, 232 columns, and 212 nonzeros.
Reduced MIP has 148 binaries, 0 generals, 0 SOSs, and 0 indicators.
Presolve time = 0.00 sec. (0.19 ticks)
Probing time = 0.00 sec. (0.07 ticks)
Clique table members: 14.
MIP emphasis: balance optimality and feasibility.
MIP search method: traditional branch-and-cut.
Parallel mode: none, using 1 thread.
Root relaxation solution time = 0.00 sec. (0.12 ticks)

        Nodes                                         Cuts/
   Node  Left     Objective  IInf  Best Integer    Best Bound    ItCnt     Gap         Variable B NodeID Parent  Depth

      0     0        3.0000     5                      3.0000        5         
      0     0        5.0000     4                    Cuts: 34       65         
      0     0        5.0000     1                     Cuts: 7       69         
*     0+    0                            6.0000        5.0000            16.67%
      0     0        5.0000     1        6.0000    MIRcuts: 1       78   16.67%
*     0+    0                            5.0000        5.0000             0.00%
      0     0        cutoff              5.0000        5.0000       78    0.00%                        0             0
Elapsed time = 0.02 sec. (2.38 ticks, tree = 0.01 MB, solutions = 2)

Clique cuts applied:  7
Implied bound cuts applied:  9
Mixed integer rounding cuts applied:  7
User cuts applied:  4

Root node processing (before b&c):
  Real time             =    0.02 sec. (2.39 ticks)
Sequential b&c:
  Real time             =    0.00 sec. (0.00 ticks)
                          ------------
Total (root+branch&cut) =    0.02 sec. (2.39 ticks)
